
Gurobi 7.0.2 (mac64) logging started Sun Apr  9 14:37:53 2017


ERROR 10009: No Gurobi license found (user dwhatley, host dhcp-18-111-25-44.dyn.mit.edu, hostid cd9d32dc)


Gurobi 7.0.2 (mac64) logging started Sun Apr  9 14:38:44 2017


Gurobi 7.0.2 (mac64, Python) logging started Sun Apr  9 14:39:48 2017


Gurobi 7.0.2 (mac64, Python) logging started Sun Apr  9 14:40:42 2017

